NAME: st70-20-2
TYPE: TSP
COMMENT: min_cost = 373.34
DIMENSION: 20
EDGE_WEIGHT_TYPE: EUC_2D
NODE_COORD_SECTION
1 52 18
2 37 64
3 10 55
4 84 94
5 62 1
6 54 38
7 95 86
8 79 17
9 95 57
10 30 23
11 64 96
12 44 33
13 8 19
14 76 73
15 29 51
16 81 76
17 82 88
18 64 8
19 80 39
20 72 42
EOF
